NAME : portgen-40-208
COMMENT : portgen N=40, seed=208
TYPE : TSP
DIMENSION : 40
EDGE_WEIGHT_TYPE : EUC_2D
NODE_COORD_SECTION
1 208 1579
2 2967 3116
3 789 1510
4 1645 152
5 2791 478
6 733 1534
7 1515 2260
8 2968 622
9 2743 1447
10 2950 2747
11 215 2737
12 1027 1867
13 341 2062
14 2745 932
15 276 3146
16 1263 1259
17 2207 167
18 2926 1994
19 1350 339
20 1069 98
21 2067 1251
22 2590 2797
23 2423 1770
24 2136 1493
25 193 1121
26 1089 617
27 1974 940
28 1406 2112
29 2535 2799
30 189 1957
31 159 1306
32 2245 2693
33 1574 2645
34 2107 1881
35 2999 1197
36 1649 1250
37 1253 1828
38 1658 2760
39 762 86
40 460 1392
